liczbaMiejsc = 48;
liczbaPracownikow = 24;
dMin = 2.5;
procentowaZajetoscMiejscWFirmie = 0.5;
macierzOdleglosci = [[0, 1.5, 3.0, 4.5, 6.0, 7.5, 9.0, 10.5, 12.0, 13.5, 2.0, 2.5, 3.6, 4.9, 6.3, 7.8, 9.2, 10.7, 12.2, 13.6, 5.0, 5.2, 5.8, 6.7, 7.8, 9.0, 10.3, 11.6, 13.0, 14.4, 7.0, 7.2, 7.6, 8.3, 9.2, 10.3, 11.4, 12.6, 13.9, 15.2, 10.0, 10.1, 10.4, 11.0, 11.7, 12.5, 13.5, 14.5], [0, 0, 1.5, 3.0, 4.5, 6.0, 7.5, 9.0, 10.5, 12.0, 2.5, 2.0, 2.5, 3.6, 4.9, 6.3, 7.8, 9.2, 10.7, 12.2, 5.2, 5.0, 5.2, 5.8, 6.7, 7.8, 9.0, 10.3, 11.6, 13.0, 7.2, 7.0, 7.2, 7.6, 8.3, 9.2, 10.3, 11.4, 12.6, 13.9, 10.1, 10.0, 10.1, 10.4, 11.0, 11.7, 12.5, 13.5], [0, 0, 0, 1.5, 3.0, 4.5, 6.0, 7.5, 9.0, 10.5, 3.6, 2.5, 2.0, 2.5, 3.6, 4.9, 6.3, 7.8, 9.2, 10.7, 5.8, 5.2, 5.0, 5.2, 5.8, 6.7, 7.8, 9.0, 10.3, 11.6, 7.6, 7.2, 7.0, 7.2, 7.6, 8.3, 9.2, 10.3, 11.4, 12.6, 10.4, 10.1, 10.0, 10.1, 10.4, 11.0, 11.7, 12.5], [0, 0, 0, 0, 1.5, 3.0, 4.5, 6.0, 7.5, 9.0, 4.9, 3.6, 2.5, 2.0, 2.5, 3.6, 4.9, 6.3, 7.8, 9.2, 6.7, 5.8, 5.2, 5.0, 5.2, 5.8, 6.7, 7.8, 9.0, 10.3, 8.3, 7.6, 7.2, 7.0, 7.2, 7.6, 8.3, 9.2, 10.3, 11.4, 11.0, 10.4, 10.1, 10.0, 10.1, 10.4, 11.0, 11.7], [0, 0, 0, 0, 0, 1.5, 3.0, 4.5, 6.0, 7.5, 6.3, 4.9, 3.6, 2.5, 2.0, 2.5, 3.6, 4.9, 6.3, 7.8, 7.8, 6.7, 5.8, 5.2, 5.0, 5.2, 5.8, 6.7, 7.8, 9.0, 9.2, 8.3, 7.6, 7.2, 7.0, 7.2, 7.6, 8.3, 9.2, 10.3, 11.7, 11.0, 10.4, 10.1, 10.0, 10.1, 10.4, 11.0], [0, 0, 0, 0, 0, 0, 1.5, 3.0, 4.5, 6.0, 7.8, 6.3, 4.9, 3.6, 2.5, 2.0, 2.5, 3.6, 4.9, 6.3, 9.0, 7.8, 6.7, 5.8, 5.2, 5.0, 5.2, 5.8, 6.7, 7.8, 10.3, 9.2, 8.3, 7.6, 7.2, 7.0, 7.2, 7.6, 8.3, 9.2, 12.5, 11.7, 11.0, 10.4, 10.1, 10.0, 10.1, 10.4], [0, 0, 0, 0, 0, 0, 0, 1.5, 3.0, 4.5, 9.2, 7.8, 6.3, 4.9, 3.6, 2.5, 2.0, 2.5, 3.6, 4.9, 10.3, 9.0, 7.8, 6.7, 5.8, 5.2, 5.0, 5.2, 5.8, 6.7, 11.4, 10.3, 9.2, 8.3, 7.6, 7.2, 7.0, 7.2, 7.6, 8.3, 13.5, 12.5, 11.7, 11.0, 10.4, 10.1, 10.0, 10.1], [0, 0, 0, 0, 0, 0, 0, 0, 1.5, 3.0, 10.7, 9.2, 7.8, 6.3, 4.9, 3.6, 2.5, 2.0, 2.5, 3.6, 11.6, 10.3, 9.0, 7.8, 6.7, 5.8, 5.2, 5.0, 5.2, 5.8, 12.6, 11.4, 10.3, 9.2, 8.3, 7.6, 7.2, 7.0, 7.2, 7.6, 14.5, 13.5, 12.5, 11.7, 11.0, 10.4, 10.1, 10.0], [0, 0, 0, 0, 0, 0, 0, 0, 0, 1.5, 12.2, 10.7, 9.2, 7.8, 6.3, 4.9, 3.6, 2.5, 2.0, 2.5, 13.0, 11.6, 10.3, 9.0, 7.8, 6.7, 5.8, 5.2, 5.0, 5.2, 13.9, 12.6, 11.4, 10.3, 9.2, 8.3, 7.6, 7.2, 7.0, 7.2, 15.6, 14.5, 13.5, 12.5, 11.7, 11.0, 10.4, 10.1], [0, 0, 0, 0, 0, 0, 0, 0, 0, 0, 13.6, 12.2, 10.7, 9.2, 7.8, 6.3, 4.9, 3.6, 2.5, 2.0, 14.4, 13.0, 11.6, 10.3, 9.0, 7.8, 6.7, 5.8, 5.2, 5.0, 15.2, 13.9, 12.6, 11.4, 10.3, 9.2, 8.3, 7.6, 7.2, 7.0, 16.8, 15.6, 14.5, 13.5, 12.5, 11.7, 11.0, 10.4], [0, 0, 0, 0, 0, 0, 0, 0, 0, 0, 0, 1.5, 3.0, 4.5, 6.0, 7.5, 9.0, 10.5, 12.0, 13.5, 3.0, 3.4, 4.2, 5.4, 6.7, 8.1, 9.5, 10.9, 12.4, 13.8, 5.0, 5.2, 5.8, 6.7, 7.8, 9.0, 10.3, 11.6, 13.0, 14.4, 8.0, 8.1, 8.5, 9.2, 10.0, 11.0, 12.0, 13.2], [0, 0, 0, 0, 0, 0, 0, 0, 0, 0, 0, 0, 1.5, 3.0, 4.5, 6.0, 7.5, 9.0, 10.5, 12.0, 3.4, 3.0, 3.4, 4.2, 5.4, 6.7, 8.1, 9.5, 10.9, 12.4, 5.2, 5.0, 5.2, 5.8, 6.7, 7.8, 9.0, 10.3, 11.6, 13.0, 8.1, 8.0, 8.1, 8.5, 9.2, 10.0, 11.0, 12.0], [0, 0, 0, 0, 0, 0, 0, 0, 0, 0, 0, 0, 0, 1.5, 3.0, 4.5, 6.0, 7.5, 9.0, 10.5, 4.2, 3.4, 3.0, 3.4, 4.2, 5.4, 6.7, 8.1, 9.5, 10.9, 5.8, 5.2, 5.0, 5.2, 5.8, 6.7, 7.8, 9.0, 10.3, 11.6, 8.5, 8.1, 8.0, 8.1, 8.5, 9.2, 10.0, 11.0], [0, 0, 0, 0, 0, 0, 0, 0, 0, 0, 0, 0, 0, 0, 1.5, 3.0, 4.5, 6.0, 7.5, 9.0, 5.4, 4.2, 3.4, 3.0, 3.4, 4.2, 5.4, 6.7, 8.1, 9.5, 6.7, 5.8, 5.2, 5.0, 5.2, 5.8, 6.7, 7.8, 9.0, 10.3, 9.2, 8.5, 8.1, 8.0, 8.1, 8.5, 9.2, 10.0], [0, 0, 0, 0, 0, 0, 0, 0, 0, 0, 0, 0, 0, 0, 0, 1.5, 3.0, 4.5, 6.0, 7.5, 6.7, 5.4, 4.2, 3.4, 3.0, 3.4, 4.2, 5.4, 6.7, 8.1, 7.8, 6.7, 5.8, 5.2, 5.0, 5.2, 5.8, 6.7, 7.8, 9.0, 10.0, 9.2, 8.5, 8.1, 8.0, 8.1, 8.5, 9.2], [0, 0, 0, 0, 0, 0, 0, 0, 0, 0, 0, 0, 0, 0, 0, 0, 1.5, 3.0, 4.5, 6.0, 8.1, 6.7, 5.4, 4.2, 3.4, 3.0, 3.4, 4.2, 5.4, 6.7, 9.0, 7.8, 6.7, 5.8, 5.2, 5.0, 5.2, 5.8, 6.7, 7.8, 11.0, 10.0, 9.2, 8.5, 8.1, 8.0, 8.1, 8.5], [0, 0, 0, 0, 0, 0, 0, 0, 0, 0, 0, 0, 0, 0, 0, 0, 0, 1.5, 3.0, 4.5, 9.5, 8.1, 6.7, 5.4, 4.2, 3.4, 3.0, 3.4, 4.2, 5.4, 10.3, 9.0, 7.8, 6.7, 5.8, 5.2, 5.0, 5.2, 5.8, 6.7, 12.0, 11.0, 10.0, 9.2, 8.5, 8.1, 8.0, 8.1], [0, 0, 0, 0, 0, 0, 0, 0, 0, 0, 0, 0, 0, 0, 0, 0, 0, 0, 1.5, 3.0, 10.9, 9.5, 8.1, 6.7, 5.4, 4.2, 3.4, 3.0, 3.4, 4.2, 11.6, 10.3, 9.0, 7.8, 6.7, 5.8, 5.2, 5.0, 5.2, 5.8, 13.2, 12.0, 11.0, 10.0, 9.2, 8.5, 8.1, 8.0], [0, 0, 0, 0, 0, 0, 0, 0, 0, 0, 0, 0, 0, 0, 0, 0, 0, 0, 0, 1.5, 12.4, 10.9, 9.5, 8.1, 6.7, 5.4, 4.2, 3.4, 3.0, 3.4, 13.0, 11.6, 10.3, 9.0, 7.8, 6.7, 5.8, 5.2, 5.0, 5.2, 14.4, 13.2, 12.0, 11.0, 10.0, 9.2, 8.5, 8.1], [0, 0, 0, 0, 0, 0, 0, 0, 0, 0, 0, 0, 0, 0, 0, 0, 0, 0, 0, 0, 13.8, 12.4, 10.9, 9.5, 8.1, 6.7, 5.4, 4.2, 3.4, 3.0, 14.4, 13.0, 11.6, 10.3, 9.0, 7.8, 6.7, 5.8, 5.2, 5.0, 15.7, 14.4, 13.2, 12.0, 11.0, 10.0, 9.2, 8.5], [0, 0, 0, 0, 0, 0, 0, 0, 0, 0, 0, 0, 0, 0, 0, 0, 0, 0, 0, 0, 0, 1.5, 3.0, 4.5, 6.0, 7.5, 9.0, 10.5, 12.0, 13.5, 2.0, 2.5, 3.6, 4.9, 6.3, 7.8, 9.2, 10.7, 12.2, 13.6, 5.0, 5.2, 5.8, 6.7, 7.8, 9.0, 10.3, 11.6], [0, 0, 0, 0, 0, 0, 0, 0, 0, 0, 0, 0, 0, 0, 0, 0, 0, 0, 0, 0, 0, 0, 1.5, 3.0, 4.5, 6.0, 7.5, 9.0, 10.5, 12.0, 2.5, 2.0, 2.5, 3.6, 4.9, 6.3, 7.8, 9.2, 10.7, 12.2, 5.2, 5.0, 5.2, 5.8, 6.7, 7.8, 9.0, 10.3], [0, 0, 0, 0, 0, 0, 0, 0, 0, 0, 0, 0, 0, 0, 0, 0, 0, 0, 0, 0, 0, 0, 0, 1.5, 3.0, 4.5, 6.0, 7.5, 9.0, 10.5, 3.6, 2.5, 2.0, 2.5, 3.6, 4.9, 6.3, 7.8, 9.2, 10.7, 5.8, 5.2, 5.0, 5.2, 5.8, 6.7, 7.8, 9.0], [0, 0, 0, 0, 0, 0, 0, 0, 0, 0, 0, 0, 0, 0, 0, 0, 0, 0, 0, 0, 0, 0, 0, 0, 1.5, 3.0, 4.5, 6.0, 7.5, 9.0, 4.9, 3.6, 2.5, 2.0, 2.5, 3.6, 4.9, 6.3, 7.8, 9.2, 6.7, 5.8, 5.2, 5.0, 5.2, 5.8, 6.7, 7.8], [0, 0, 0, 0, 0, 0, 0, 0, 0, 0, 0, 0, 0, 0, 0, 0, 0, 0, 0, 0, 0, 0, 0, 0, 0, 1.5, 3.0, 4.5, 6.0, 7.5, 6.3, 4.9, 3.6, 2.5, 2.0, 2.5, 3.6, 4.9, 6.3, 7.8, 7.8, 6.7, 5.8, 5.2, 5.0, 5.2, 5.8, 6.7], [0, 0, 0, 0, 0, 0, 0, 0, 0, 0, 0, 0, 0, 0, 0, 0, 0, 0, 0, 0, 0, 0, 0, 0, 0, 0, 1.5, 3.0, 4.5, 6.0, 7.8, 6.3, 4.9, 3.6, 2.5, 2.0, 2.5, 3.6, 4.9, 6.3, 9.0, 7.8, 6.7, 5.8, 5.2, 5.0, 5.2, 5.8], [0, 0, 0, 0, 0, 0, 0, 0, 0, 0, 0, 0, 0, 0, 0, 0, 0, 0, 0, 0, 0, 0, 0, 0, 0, 0, 0, 1.5, 3.0, 4.5, 9.2, 7.8, 6.3, 4.9, 3.6, 2.5, 2.0, 2.5, 3.6, 4.9, 10.3, 9.0, 7.8, 6.7, 5.8, 5.2, 5.0, 5.2], [0, 0, 0, 0, 0, 0, 0, 0, 0, 0, 0, 0, 0, 0, 0, 0, 0, 0, 0, 0, 0, 0, 0, 0, 0, 0, 0, 0, 1.5, 3.0, 10.7, 9.2, 7.8, 6.3, 4.9, 3.6, 2.5, 2.0, 2.5, 3.6, 11.6, 10.3, 9.0, 7.8, 6.7, 5.8, 5.2, 5.0], [0, 0, 0, 0, 0, 0, 0, 0, 0, 0, 0, 0, 0, 0, 0, 0, 0, 0, 0, 0, 0, 0, 0, 0, 0, 0, 0, 0, 0, 1.5, 12.2, 10.7, 9.2, 7.8, 6.3, 4.9, 3.6, 2.5, 2.0, 2.5, 13.0, 11.6, 10.3, 9.0, 7.8, 6.7, 5.8, 5.2], [0, 0, 0, 0, 0, 0, 0, 0, 0, 0, 0, 0, 0, 0, 0, 0, 0, 0, 0, 0, 0, 0, 0, 0, 0, 0, 0, 0, 0, 0, 13.6, 12.2, 10.7, 9.2, 7.8, 6.3, 4.9, 3.6, 2.5, 2.0, 14.4, 13.0, 11.6, 10.3, 9.0, 7.8, 6.7, 5.8], [0, 0, 0, 0, 0, 0, 0, 0, 0, 0, 0, 0, 0, 0, 0, 0, 0, 0, 0, 0, 0, 0, 0, 0, 0, 0, 0, 0, 0, 0, 0, 1.5, 3.0, 4.5, 6.0, 7.5, 9.0, 10.5, 12.0, 13.5, 3.0, 3.4, 4.2, 5.4, 6.7, 8.1, 9.5, 10.9], [0, 0, 0, 0, 0, 0, 0, 0, 0, 0, 0, 0, 0, 0, 0, 0, 0, 0, 0, 0, 0, 0, 0, 0, 0, 0, 0, 0, 0, 0, 0, 0, 1.5, 3.0, 4.5, 6.0, 7.5, 9.0, 10.5, 12.0, 3.4, 3.0, 3.4, 4.2, 5.4, 6.7, 8.1, 9.5], [0, 0, 0, 0, 0, 0, 0, 0, 0, 0, 0, 0, 0, 0, 0, 0, 0, 0, 0, 0, 0, 0, 0, 0, 0, 0, 0, 0, 0, 0, 0, 0, 0, 1.5, 3.0, 4.5, 6.0, 7.5, 9.0, 10.5, 4.2, 3.4, 3.0, 3.4, 4.2, 5.4, 6.7, 8.1], [0, 0, 0, 0, 0, 0, 0, 0, 0, 0, 0, 0, 0, 0, 0, 0, 0, 0, 0, 0, 0, 0, 0, 0, 0, 0, 0, 0, 0, 0, 0, 0, 0, 0, 1.5, 3.0, 4.5, 6.0, 7.5, 9.0, 5.4, 4.2, 3.4, 3.0, 3.4, 4.2, 5.4, 6.7], [0, 0, 0, 0, 0, 0, 0, 0, 0, 0, 0, 0, 0, 0, 0, 0, 0, 0, 0, 0, 0, 0, 0, 0, 0, 0, 0, 0, 0, 0, 0, 0, 0, 0, 0, 1.5, 3.0, 4.5, 6.0, 7.5, 6.7, 5.4, 4.2, 3.4, 3.0, 3.4, 4.2, 5.4], [0, 0, 0, 0, 0, 0, 0, 0, 0, 0, 0, 0, 0, 0, 0, 0, 0, 0, 0, 0, 0, 0, 0, 0, 0, 0, 0, 0, 0, 0, 0, 0, 0, 0, 0, 0, 1.5, 3.0, 4.5, 6.0, 8.1, 6.7, 5.4, 4.2, 3.4, 3.0, 3.4, 4.2], [0, 0, 0, 0, 0, 0, 0, 0, 0, 0, 0, 0, 0, 0, 0, 0, 0, 0, 0, 0, 0, 0, 0, 0, 0, 0, 0, 0, 0, 0, 0, 0, 0, 0, 0, 0, 0, 1.5, 3.0, 4.5, 9.5, 8.1, 6.7, 5.4, 4.2, 3.4, 3.0, 3.4], [0, 0, 0, 0, 0, 0, 0, 0, 0, 0, 0, 0, 0, 0, 0, 0, 0, 0, 0, 0, 0, 0, 0, 0, 0, 0, 0, 0, 0, 0, 0, 0, 0, 0, 0, 0, 0, 0, 1.5, 3.0, 10.9, 9.5, 8.1, 6.7, 5.4, 4.2, 3.4, 3.0], [0, 0, 0, 0, 0, 0, 0, 0, 0, 0, 0, 0, 0, 0, 0, 0, 0, 0, 0, 0, 0, 0, 0, 0, 0, 0, 0, 0, 0, 0, 0, 0, 0, 0, 0, 0, 0, 0, 0, 1.5, 12.4, 10.9, 9.5, 8.1, 6.7, 5.4, 4.2, 3.4], [0, 0, 0, 0, 0, 0, 0, 0, 0, 0, 0, 0, 0, 0, 0, 0, 0, 0, 0, 0, 0, 0, 0, 0, 0, 0, 0, 0, 0, 0, 0, 0, 0, 0, 0, 0, 0, 0, 0, 0, 13.8, 12.4, 10.9, 9.5, 8.1, 6.7, 5.4, 4.2], [0, 0, 0, 0, 0, 0, 0, 0, 0, 0, 0, 0, 0, 0, 0, 0, 0, 0, 0, 0, 0, 0, 0, 0, 0, 0, 0, 0, 0, 0, 0, 0, 0, 0, 0, 0, 0, 0, 0, 0, 0, 1.5, 3.0, 4.5, 6.0, 7.5, 9.0, 10.5], [0, 0, 0, 0, 0, 0, 0, 0, 0, 0, 0, 0, 0, 0, 0, 0, 0, 0, 0, 0, 0, 0, 0, 0, 0, 0, 0, 0, 0, 0, 0, 0, 0, 0, 0, 0, 0, 0, 0, 0, 0, 0, 1.5, 3.0, 4.5, 6.0, 7.5, 9.0], [0, 0, 0, 0, 0, 0, 0, 0, 0, 0, 0, 0, 0, 0, 0, 0, 0, 0, 0, 0, 0, 0, 0, 0, 0, 0, 0, 0, 0, 0, 0, 0, 0, 0, 0, 0, 0, 0, 0, 0, 0, 0, 0, 1.5, 3.0, 4.5, 6.0, 7.5], [0, 0, 0, 0, 0, 0, 0, 0, 0, 0, 0, 0, 0, 0, 0, 0, 0, 0, 0, 0, 0, 0, 0, 0, 0, 0, 0, 0, 0, 0, 0, 0, 0, 0, 0, 0, 0, 0, 0, 0, 0, 0, 0, 0, 1.5, 3.0, 4.5, 6.0], [0, 0, 0, 0, 0, 0, 0, 0, 0, 0, 0, 0, 0, 0, 0, 0, 0, 0, 0, 0, 0, 0, 0, 0, 0, 0, 0, 0, 0, 0, 0, 0, 0, 0, 0, 0, 0, 0, 0, 0, 0, 0, 0, 0, 0, 1.5, 3.0, 4.5], [0, 0, 0, 0, 0, 0, 0, 0, 0, 0, 0, 0, 0, 0, 0, 0, 0, 0, 0, 0, 0, 0, 0, 0, 0, 0, 0, 0, 0, 0, 0, 0, 0, 0, 0, 0, 0, 0, 0, 0, 0, 0, 0, 0, 0, 0, 1.5, 3.0], [0, 0, 0, 0, 0, 0, 0, 0, 0, 0, 0, 0, 0, 0, 0, 0, 0, 0, 0, 0, 0, 0, 0, 0, 0, 0, 0, 0, 0, 0, 0, 0, 0, 0, 0, 0, 0, 0, 0, 0, 0, 0, 0, 0, 0, 0, 0, 1.5], [0, 0, 0, 0, 0, 0, 0, 0, 0, 0, 0, 0, 0, 0, 0, 0, 0, 0, 0, 0, 0, 0, 0, 0, 0, 0, 0, 0, 0, 0, 0, 0, 0, 0, 0, 0, 0, 0, 0, 0, 0, 0, 0, 0, 0, 0, 0, 0]];